1 60 31 84 29 28 85 86 21 15 16 71 81 20 61 83 40 13 14 100 87 98 97 96 68 34 11 67 36 89 65 95 41 50 88 48 35 43 42 9 46 49 56 10 33 59 32 58 99 70 62 12 38 82 52 19 78 2 69 39 57 44 64 45 47 37 93 94 66 7 53 23 22 24 73 92 25 6 74 17 90 76 5 55 72 91 8 3 51 79 77 63 4 75 80 30 18 54 27 26 101
